c turning on binary mode checking
c parsing input formula with 202048 variables and 780975 clauses
c finished parsing, read 1784179 bytes from proof file
c detected empty clause; start verification via backward checking
c 466 of 780975 clauses in core                            
c 155 of 72505 lemmas in core using 1920 resolution steps
c 0 RAT lemmas in core; 0 redundant literals in core lemmas
s VERIFIED
c verification time: 0.873 seconds
